\ This file has been generated by DOcplex
\ ENCODING=ISO-8859-1
\Problem name: recycling problem

Maximize
 obj: [ 23.333331761916 a0_u0*a1_u0_x0 + 27.333331761916 a0_u0*a1_u1_x0
      + 23.333331761916 a0_u0*a1_u2_x0 + 27.333331761916 a0_u1*a1_u0_x0
      + 31.333331761916 a0_u1*a1_u1_x0 + 27.333331761916 a0_u1*a1_u2_x0
      + 23.333331761916 a0_u2*a1_u0_x0 + 27.333331761916 a0_u2*a1_u1_x0
      + 32.071426534776 a0_u2*a1_u2_x0 ]/2
Subject To
 c1: 1.666666105452 aj_u0_x0 + 3.666666105452 aj_u1_x0 + 1.666666105452 aj_u2_x0
     + 1.666666105452 aj_u3_x0 + 0.666666105452 aj_u4_x0
     + 6.666666105452 aj_u5_x0 + 0.666666105452 aj_u6_x0
     + 4.666666105452 aj_u7_x0 + 1.432822540345 aj_u8_x0 - 1.666666105452 a0_u0
     - 1.666666105452 a0_u1 - 0.666666105452 a0_u2 >= 0
 c2: 1.666666105452 aj_u0_x0 + 3.666666105452 aj_u1_x0 + 1.666666105452 aj_u2_x0
     + 1.666666105452 aj_u3_x0 + 0.666666105452 aj_u4_x0
     + 6.666666105452 aj_u5_x0 + 0.666666105452 aj_u6_x0
     + 4.666666105452 aj_u7_x0 + 1.432822540345 aj_u8_x0 - 3.666666105452 a0_u0
     - 0.666666105452 a0_u1 - 4.666666105452 a0_u2 >= 0
 c3: 1.666666105452 aj_u0_x0 + 3.666666105452 aj_u1_x0 + 1.666666105452 aj_u2_x0
     + 1.666666105452 aj_u3_x0 + 0.666666105452 aj_u4_x0
     + 6.666666105452 aj_u5_x0 + 0.666666105452 aj_u6_x0
     + 4.666666105452 aj_u7_x0 + 1.432822540345 aj_u8_x0 - 1.666666105452 a0_u0
     - 6.666666105452 a0_u1 - 1.432822540345 a0_u2 >= 0
 c4: - 3 aj_u0_x1 - aj_u1_x1 + 3 aj_u2_x1 + 5 aj_u4_x1 - aj_u6_x1 - aj_u7_x1
     - 2 aj_u8_x1 + 3 a0_u0 + a0_u2 >= 0
 c5: - 3 aj_u0_x1 - aj_u1_x1 + 3 aj_u2_x1 + 5 aj_u4_x1 - aj_u6_x1 - aj_u7_x1
     - 2 aj_u8_x1 + a0_u0 - 5 a0_u1 + a0_u2 >= 0
 c6: - 3 aj_u0_x1 - aj_u1_x1 + 3 aj_u2_x1 + 5 aj_u4_x1 - aj_u6_x1 - aj_u7_x1
     - 2 aj_u8_x1 - 3 a0_u0 + 2 a0_u2 >= 0
 c7: aj_u0_x2 - 2 aj_u1_x2 - 3 aj_u2_x2 + 4 aj_u5_x2 + 3 aj_u6_x2 + 3 aj_u8_x2
     - a0_u0 - 3 a0_u2 >= 0
 c8: aj_u0_x2 - 2 aj_u1_x2 - 3 aj_u2_x2 + 4 aj_u5_x2 + 3 aj_u6_x2 + 3 aj_u8_x2
     + 2 a0_u0 >= 0
 c9: aj_u0_x2 - 2 aj_u1_x2 - 3 aj_u2_x2 + 4 aj_u5_x2 + 3 aj_u6_x2 + 3 aj_u8_x2
     + 3 a0_u0 - 4 a0_u1 - 3 a0_u2 >= 0
 c10: 5 aj_u1_x3 - 3 aj_u2_x3 + 5 aj_u3_x3 + 5 aj_u4_x3 + aj_u5_x3 + 2 aj_u6_x3
      + 2 aj_u7_x3 - 2 aj_u8_x3 - 5 a0_u1 - 2 a0_u2 >= 0
 c11: 5 aj_u1_x3 - 3 aj_u2_x3 + 5 aj_u3_x3 + 5 aj_u4_x3 + aj_u5_x3 + 2 aj_u6_x3
      + 2 aj_u7_x3 - 2 aj_u8_x3 - 5 a0_u0 - 5 a0_u1 - 2 a0_u2 >= 0
 c12: 5 aj_u1_x3 - 3 aj_u2_x3 + 5 aj_u3_x3 + 5 aj_u4_x3 + aj_u5_x3 + 2 aj_u6_x3
      + 2 aj_u7_x3 - 2 aj_u8_x3 + 3 a0_u0 - a0_u1 + 2 a0_u2 >= 0
 c13: a0_u0 + a0_u1 + a0_u2 = 1
 c14: a1_u0_x0 + a1_u1_x0 + a1_u2_x0 = 1
 c15: aj_u0_x0 + aj_u1_x0 + aj_u2_x0 + aj_u3_x0 + aj_u4_x0 + aj_u5_x0 + aj_u6_x0
      + aj_u7_x0 + aj_u8_x0 = 1
 c16: a1_u0_x1 + a1_u1_x1 + a1_u2_x1 = 1
 c17: aj_u0_x1 + aj_u1_x1 + aj_u2_x1 + aj_u3_x1 + aj_u4_x1 + aj_u5_x1 + aj_u6_x1
      + aj_u7_x1 + aj_u8_x1 = 1
 c18: a1_u0_x2 + a1_u1_x2 + a1_u2_x2 = 1
 c19: aj_u0_x2 + aj_u1_x2 + aj_u2_x2 + aj_u3_x2 + aj_u4_x2 + aj_u5_x2 + aj_u6_x2
      + aj_u7_x2 + aj_u8_x2 = 1
 c20: a1_u0_x3 + a1_u1_x3 + a1_u2_x3 = 1
 c21: aj_u0_x3 + aj_u1_x3 + aj_u2_x3 + aj_u3_x3 + aj_u4_x3 + aj_u5_x3 + aj_u6_x3
      + aj_u7_x3 + aj_u8_x3 = 1
 c22: aj_u0_x0 + aj_u1_x0 + aj_u2_x0 - a0_u0 = 0
 c23: aj_u3_x0 + aj_u4_x0 + aj_u5_x0 - a0_u1 = 0
 c24: aj_u6_x0 + aj_u7_x0 + aj_u8_x0 - a0_u2 = 0
 c25: aj_u0_x1 + aj_u1_x1 + aj_u2_x1 - a0_u0 = 0
 c26: aj_u3_x1 + aj_u4_x1 + aj_u5_x1 - a0_u1 = 0
 c27: aj_u6_x1 + aj_u7_x1 + aj_u8_x1 - a0_u2 = 0
 c28: aj_u0_x2 + aj_u1_x2 + aj_u2_x2 - a0_u0 = 0
 c29: aj_u3_x2 + aj_u4_x2 + aj_u5_x2 - a0_u1 = 0
 c30: aj_u6_x2 + aj_u7_x2 + aj_u8_x2 - a0_u2 = 0
 c31: aj_u0_x3 + aj_u1_x3 + aj_u2_x3 - a0_u0 = 0
 c32: aj_u3_x3 + aj_u4_x3 + aj_u5_x3 - a0_u1 = 0
 c33: aj_u6_x3 + aj_u7_x3 + aj_u8_x3 - a0_u2 = 0
 c34: aj_u0_x0 + aj_u3_x0 + aj_u6_x0 - a1_u0_x0 = 0
 c35: aj_u1_x0 + aj_u4_x0 + aj_u7_x0 - a1_u1_x0 = 0
 c36: aj_u2_x0 + aj_u5_x0 + aj_u8_x0 - a1_u2_x0 = 0
 c37: aj_u0_x1 + aj_u3_x1 + aj_u6_x1 - a1_u0_x1 = 0
 c38: aj_u1_x1 + aj_u4_x1 + aj_u7_x1 - a1_u1_x1 = 0
 c39: aj_u2_x1 + aj_u5_x1 + aj_u8_x1 - a1_u2_x1 = 0
 c40: aj_u0_x2 + aj_u3_x2 + aj_u6_x2 - a1_u0_x2 = 0
 c41: aj_u1_x2 + aj_u4_x2 + aj_u7_x2 - a1_u1_x2 = 0
 c42: aj_u2_x2 + aj_u5_x2 + aj_u8_x2 - a1_u2_x2 = 0
 c43: aj_u0_x3 + aj_u3_x3 + aj_u6_x3 - a1_u0_x3 = 0
 c44: aj_u1_x3 + aj_u4_x3 + aj_u7_x3 - a1_u1_x3 = 0
 c45: aj_u2_x3 + aj_u5_x3 + aj_u8_x3 - a1_u2_x3 = 0

Bounds
       a0_u0 <= 1
       a0_u1 <= 1
       a0_u2 <= 1
 0 <= a1_u0_x0 <= 1
 0 <= a1_u1_x0 <= 1
 0 <= a1_u2_x0 <= 1
       aj_u0_x0 <= 1
       aj_u1_x0 <= 1
       aj_u2_x0 <= 1
       aj_u3_x0 <= 1
       aj_u4_x0 <= 1
       aj_u5_x0 <= 1
       aj_u6_x0 <= 1
       aj_u7_x0 <= 1
       aj_u8_x0 <= 1
 0 <= a1_u0_x1 <= 1
 0 <= a1_u1_x1 <= 1
 0 <= a1_u2_x1 <= 1
       aj_u0_x1 <= 1
       aj_u1_x1 <= 1
       aj_u2_x1 <= 1
       aj_u3_x1 <= 1
       aj_u4_x1 <= 1
       aj_u5_x1 <= 1
       aj_u6_x1 <= 1
       aj_u7_x1 <= 1
       aj_u8_x1 <= 1
 0 <= a1_u0_x2 <= 1
 0 <= a1_u1_x2 <= 1
 0 <= a1_u2_x2 <= 1
       aj_u0_x2 <= 1
       aj_u1_x2 <= 1
       aj_u2_x2 <= 1
       aj_u3_x2 <= 1
       aj_u4_x2 <= 1
       aj_u5_x2 <= 1
       aj_u6_x2 <= 1
       aj_u7_x2 <= 1
       aj_u8_x2 <= 1
 0 <= a1_u0_x3 <= 1
 0 <= a1_u1_x3 <= 1
 0 <= a1_u2_x3 <= 1
       aj_u0_x3 <= 1
       aj_u1_x3 <= 1
       aj_u2_x3 <= 1
       aj_u3_x3 <= 1
       aj_u4_x3 <= 1
       aj_u5_x3 <= 1
       aj_u6_x3 <= 1
       aj_u7_x3 <= 1
       aj_u8_x3 <= 1

Binaries
 a1_u0_x0 a1_u1_x0 a1_u2_x0 a1_u0_x1 a1_u1_x1 a1_u2_x1 a1_u0_x2 a1_u1_x2
 a1_u2_x2 a1_u0_x3 a1_u1_x3 a1_u2_x3
End
